unsat
(:elim-unconstrained  522
 :max-memory          42.55
 :memory              31.71
 :nlsat-arith-var     2013
 :nlsat-atoms         6570
 :nlsat-bool-var      176
 :nlsat-clauses       4452
 :nlsat-conflicts     3061
 :nlsat-decisions     13478
 :nlsat-propagations  54518
 :nlsat-stages        30470
 :num-allocs          49769450
 :rlimit-count        2263663
 :solve-eqs-elim-vars 2020
 :solve-eqs-steps     10032
 :time                0.67
 :total-time          0.73)
